50
    1   450   416
    2   487   524
    3   259   306
    4    54    11
    5   223   228
    6    85   130
    7    73   125
    8    86   100
    9   403   381
   10   559   570
   11   101   100
   12   478   451
   13   567   532
   14   126   148
   15   140    93
   16    66   109
   17   295   349
   18   146   112
   19    14    41
   20   151   102
   21   434   493
   22   171   176
   23   359   340
   24   161   143
   25   501   549
   26   284   336
   27    68   122
   28     1     8
   29   310   326
   30   361   351
   31   131   138
   32   218   220
   33   401   380
   34    19    53
   35   416   404
   36   112   121
   37   268   252
   38   514   509
   39   511   564
   40   342   327
   41   201   207
   42   151   186
   43   615   598
   44   128   182
   45   513   471
   46   555   539
   47    67    58
   48   400   386
   49   473   439
   50    27    24
601
